9,9	0,0	6,5	15,4	0,0	0,0	0,0	0,0	0,0	11,1
13,9	5,4	0,0	6,6	10,4	0,0	0,0	5,1	0,0	0,0
0,0	0,0	17,3	0,0	14,4	12,7	0,0	0,0	6,1	0,0
19,2	0,0	5,2	0,0	0,0	0,0	7,8	0,0	0,0	0,0
0,0	12,2	0,0	16,7	11,5	0,0	0,0	12,6	0,0	0,0
0,0	12,1	18,1	0,0	9,3	14,4	0,0	0,0	18,5	0,0
0,0	18,8	0,0	6,4	0,0	0,0	19,4	0,0	0,0	8,3
11,4	0,0	9,7	0,0	0,0	0,0	0,0	0,0	0,0	15,5
0,0	13,0	0,0	8,2	13,1	0,0	0,0	19,4	0,0	0,0
0,0	0,0	6,1	0,0	0,0	17,2	16,7	0,0	0,0	9,1
									
4,2	4,6	2,7	3,3	2,8	4,4	4,9	4,2	4,9	4,8
